n = 20
Q1 = [0 29 0 0 0 0 0 44 45 0 16 0 21 0 15 0 48 0 0 0; 0 0 0 0 0 24 0 31 0 21 0 0 0 23 0 0 0 0 0 0; 0 0 0 32 0 0 0 0 0 39 39 0 0 0 0 31 0 16 26 0; 0 0 0 0 16 0 0 0 0 8 0 0 0 0 0 38 0 41 0 0; 0 0 0 0 0 33 0 10 0 0 0 0 32 0 0 0 0 0 0 0; 0 0 0 0 0 0 0 0 0 0 0 0 0 0 0 0 0 0 0 31; 0 0 0 0 0 0 0 0 0 38 0 45 0 0 0 40 0 0 0 0; 0 0 0 0 0 0 0 0 0 0 0 12 0 45 0 0 0 0 0 30; 0 0 0 0 0 0 0 0 0 0 0 0 0 0 0 28 0 0 0 0; 0 0 0 0 0 0 0 0 0 0 28 0 0 0 0 19 0 0 0 32; 0 0 0 0 0 0 0 0 0 0 0 0 23 0 10 0 11 0 28 0; 0 0 0 0 0 0 0 0 0 0 0 0 26 0 0 43 0 28 0 0; 0 0 0 0 0 0 0 0 0 0 0 0 0 0 0 41 48 0 43 0; 0 0 0 0 0 0 0 0 0 0 0 0 0 0 0 0 0 47 0 0; 0 0 0 0 0 0 0 0 0 0 0 0 0 0 0 41 15 0 31 0; 0 0 0 0 0 0 0 0 0 0 0 0 0 0 0 0 30 0 0 0; 0 0 0 0 0 0 0 0 0 0 0 0 0 0 0 0 0 7 24 0; 0 0 0 0 0 0 0 0 0 0 0 0 0 0 0 0 0 0 0 0; 0 0 0 0 0 0 0 0 0 0 0 0 0 0 0 0 0 0 0 0; 0 0 0 0 0 0 0 0 0 0 0 0 0 0 0 0 0 0 0 0]
Q2 = [0.0 11.0 0.0 0.0 0.0 0.0 0.0 1.0 2.0 0.0 48.0 0.0 35.0 0.0 44.0 0.0 0.0 0.0 0.0 0.0; 0.0 0.0 0.0 0.0 0.0 1.0 0.0 8.0 0.0 37.0 0.0 0.0 0.0 39.0 0.0 0.0 0.0 0.0 0.0 0.0; 0.0 0.0 0.0 7.0 0.0 0.0 0.0 0.0 0.0 3.0 2.0 0.0 0.0 0.0 0.0 15.0 0.0 36.0 22.0 0.0; 0.0 0.0 0.0 0.0 39.0 0.0 0.0 0.0 0.0 42.0 0.0 0.0 0.0 0.0 0.0 4.0 0.0 7.0 0.0 0.0; 0.0 0.0 0.0 0.0 0.0 3.0 0.0 44.0 0.0 0.0 0.0 0.0 12.0 0.0 0.0 0.0 0.0 0.0 0.0 0.0; 0.0 0.0 0.0 0.0 0.0 0.0 0.0 0.0 0.0 0.0 0.0 0.0 0.0 0.0 0.0 0.0 0.0 0.0 0.0 3.0; 0.0 0.0 0.0 0.0 0.0 0.0 0.0 0.0 0.0 4.0 0.0 2.0 0.0 0.0 0.0 4.0 0.0 0.0 0.0 0.0; 0.0 0.0 0.0 0.0 0.0 0.0 0.0 0.0 0.0 0.0 0.0 44.0 0.0 2.0 0.0 0.0 0.0 0.0 0.0 0.0; 0.0 0.0 0.0 0.0 0.0 0.0 0.0 0.0 0.0 0.0 0.0 0.0 0.0 0.0 0.0 19.0 0.0 0.0 0.0 0.0; 0.0 0.0 0.0 0.0 0.0 0.0 0.0 0.0 0.0 0.0 12.0 0.0 0.0 0.0 0.0 39.0 0.0 0.0 0.0 4.0; 0.0 0.0 0.0 0.0 0.0 0.0 0.0 0.0 0.0 0.0 0.0 0.0 41.0 0.0 48.0 0.0 42.0 0.0 19.0 0.0; 0.0 0.0 0.0 0.0 0.0 0.0 0.0 0.0 0.0 0.0 0.0 0.0 12.0 0.0 0.0 0.0 0.0 8.0 0.0 0.0; 0.0 0.0 0.0 0.0 0.0 0.0 0.0 0.0 0.0 0.0 0.0 0.0 0.0 0.0 0.0 2.0 0.0 0.0 3.0 0.0; 0.0 0.0 0.0 0.0 0.0 0.0 0.0 0.0 0.0 0.0 0.0 0.0 0.0 0.0 0.0 0.0 0.0 0.0 0.0 0.0; 0.0 0.0 0.0 0.0 0.0 0.0 0.0 0.0 0.0 0.0 0.0 0.0 0.0 0.0 0.0 0.0 37.0 0.0 0.0 0.0; 0.0 0.0 0.0 0.0 0.0 0.0 0.0 0.0 0.0 0.0 0.0 0.0 0.0 0.0 0.0 0.0 5.0 0.0 0.0 0.0; 0.0 0.0 0.0 0.0 0.0 0.0 0.0 0.0 0.0 0.0 0.0 0.0 0.0 0.0 0.0 0.0 0.0 47.0 9.0 0.0; 0.0 0.0 0.0 0.0 0.0 0.0 0.0 0.0 0.0 0.0 0.0 0.0 0.0 0.0 0.0 0.0 0.0 0.0 0.0 0.0; 0.0 0.0 0.0 0.0 0.0 0.0 0.0 0.0 0.0 0.0 0.0 0.0 0.0 0.0 0.0 0.0 0.0 0.0 0.0 0.0; 0.0 0.0 0.0 0.0 0.0 0.0 0.0 0.0 0.0 0.0 0.0 0.0 0.0 0.0 0.0 0.0 0.0 0.0 0.0 0.0]
Q3 = [0 21 64 64 64 64 64 14 11 64 0 64 1 64 0 64 3 64 64 64; 0 0 64 64 64 62 64 7 64 1 64 64 64 2 64 64 64 64 64 64; 0 0 0 20 64 64 64 64 64 9 19 64 64 64 64 0 64 3 6 64; 0 0 0 0 0 64 64 64 64 14 64 64 64 64 64 9 64 1 64 64; 0 0 0 0 0 1 64 7 64 64 64 64 14 64 64 64 64 64 64 64; 0 0 0 0 0 0 64 64 64 64 64 64 64 64 64 64 64 64 64 2; 0 0 0 0 0 0 0 64 64 22 64 9 64 64 64 18 64 64 64 64; 0 0 0 0 0 0 0 0 64 64 64 8 64 17 64 64 64 64 64 48; 0 0 0 0 0 0 0 0 0 64 64 64 64 64 64 2 64 64 64 64; 0 0 0 0 0 0 0 0 0 0 1 64 64 64 64 4 64 64 64 4; 0 0 0 0 0 0 0 0 0 0 0 64 0 64 4 64 5 64 16 64; 0 0 0 0 0 0 0 0 0 0 0 0 0 64 64 12 64 24 64 64; 0 0 0 0 0 0 0 0 0 0 0 0 0 64 64 20 14 64 9 64; 0 0 0 0 0 0 0 0 0 0 0 0 0 0 64 64 64 12 64 64; 0 0 0 0 0 0 0 0 0 0 0 0 0 0 0 10 1 64 47 64; 0 0 0 0 0 0 0 0 0 0 0 0 0 0 0 0 13 64 64 64; 0 0 0 0 0 0 0 0 0 0 0 0 0 0 0 0 0 2 18 64; 0 0 0 0 0 0 0 0 0 0 0 0 0 0 0 0 0 0 64 64; 0 0 0 0 0 0 0 0 0 0 0 0 0 0 0 0 0 0 0 64; 0 0 0 0 0 0 0 0 0 0 0 0 0 0 0 0 0 0 0 0]
